NAME: Random50
COMMENT: Randomly generated TSP instance with 50 nodes.
TYPE: TSP
DIMENSION: 50
EDGE_WEIGHT_TYPE: EUC_2D
NODE_COORD_SECTION
1 395 371
2 311 388
3 48 152
4 91 416
5 403 416
6 463 189
7 230 91
8 218 153
9 230 415
10 232 342
11 370 379
12 241 386
13 363 21
14 192 411
15 73 487
16 15 128
17 172 32
18 437 346
19 383 54
20 245 370
21 447 69
22 441 114
23 106 179
24 21 470
25 346 263
26 429 127
27 279 499
28 487 440
29 170 491
30 191 218
31 46 357
32 351 33
33 319 215
34 93 50
35 196 154
36 186 273
37 478 136
38 13 241
39 499 342
40 204 346
41 309 474
42 93 222
43 264 288
44 265 221
45 322 283
46 351 342
47 425 327
48 402 101
49 400 380
50 12 477
EOF
